unknown
(model
; cardinality of BoundSet is 1
(declare-sort BoundSet 0)
; rep: @uc_BoundSet_0
(declare-sort UnboundSet 0)
(define-fun IsLeftAsIs ((BOUND_VARIABLE_341 BoundSet)) Bool true)
(define-fun IsCalled ((BOUND_VARIABLE_341 BoundSet)) Bool false)
(define-fun IsDecided ((BOUND_VARIABLE_341 BoundSet)) Bool false)
)
